
List of user-set options:

                                    Name   Value                used
                           compl_inf_tol = 1                     yes
                         constr_viol_tol = 1                     yes
                            dual_inf_tol = 1000                  yes
                           linear_solver = ma97                  yes
                              ma86_small = 1e-30                  no
                                  ma86_u = 0.0001                 no
                              ma97_order = best                  yes
                              ma97_small = 1e-30                 yes
                            ma97_switch1 = at_start              yes
                            ma97_switch2 = od_hd_reuse           yes
                                  ma97_u = 1e-06                 yes
                               ma97_umax = 0.5                   yes
                                max_iter = 1000                  yes
                    max_refinement_steps = 20                    yes
                    min_refinement_steps = 5                     yes
                                 mu_init = 1e-06                 yes
           mu_superlinear_decrease_power = 1.25                  yes
                   nlp_scaling_min_value = 1e-08                 yes
                        option_file_name = Preset_Case_769_pf.opt  yes
                             output_file = ./tmp/Preset_Case_769_pf.output  yes
                      print_user_options = yes                   yes
        required_infeasibility_reduction = 1                      no
                                     tol = 1e-08                 yes
                   warm_start_bound_frac = 1e-20                 yes
                   warm_start_bound_push = 1e-20                 yes
                   warm_start_init_point = yes                   yes
              warm_start_mult_bound_push = 1e-20                 yes
                warm_start_mult_init_max = 1e+40                 yes
             warm_start_slack_bound_frac = 1e-20                 yes
             warm_start_slack_bound_push = 1e-20                 yes

******************************************************************************
This program contains Ipopt, a library for large-scale nonlinear optimization.
 Ipopt is released as open source code under the Eclipse Public License (EPL).
         For more information visit http://projects.coin-or.org/Ipopt
******************************************************************************

This is Ipopt version 3.12.10, running with linear solver ma97.

Number of nonzeros in equality constraint Jacobian...:   123442
Number of nonzeros in inequality constraint Jacobian.:      213
Number of nonzeros in Lagrangian Hessian.............:    49069

Total number of variables............................:    31591
                     variables with only lower bounds:    12912
                variables with lower and upper bounds:    15130
                     variables with only upper bounds:        0
Total number of equality constraints.................:    31483
Total number of inequality constraints...............:       25
        inequality constraints with only lower bounds:        4
   inequality constraints with lower and upper bounds:        0
        inequality constraints with only upper bounds:       21

iter    objective    inf_pr   inf_du lg(mu)  ||d||  lg(rg) alpha_du alpha_pr  ls
   0 -5.4479737e+00 4.04e-03 1.02e+00  -6.0 0.00e+00    -  0.00e+00 0.00e+00   0
   1 -5.4504116e+00 6.59e+00 4.21e+01  -6.0 4.54e+05    -  6.97e-05 8.71e-04h  1
   2 -5.4508944e+00 6.58e+00 4.28e+01  -6.0 2.29e+05    -  7.62e-03 2.19e-04f  1
   3 -5.4479528e+00 6.58e+00 1.84e+02  -6.0 3.14e+04    -  6.51e-07 8.01e-04h  6
   4r-5.4479528e+00 6.58e+00 9.99e+02   0.8 0.00e+00  -4.0 0.00e+00 2.64e-07R  6
   5r-5.4483912e+00 6.58e+00 1.72e+03   0.8 1.84e+05    -  2.87e-09 1.43e-09f  1
   6 -5.4483455e+00 6.58e+00 1.20e+03  -6.0 4.42e+02    -  8.34e-04 9.18e-05h  1
   7 -5.4473472e+00 6.57e+00 1.43e+04  -6.0 7.15e+02    -  4.39e-05 5.88e-04h  1
   8 -5.4455572e+00 6.56e+00 1.50e+04  -6.0 3.07e+02    -  6.83e-04 1.75e-03h  1
   9 -5.4428624e+00 6.55e+00 1.49e+04  -6.0 3.06e+02    -  2.70e-03 2.66e-03h  5
iter    objective    inf_pr   inf_du lg(mu)  ||d||  lg(rg) alpha_du alpha_pr  ls
  10 -5.4420985e+00 6.54e+00 1.53e+04  -6.0 3.05e+02    -  9.55e-06 7.31e-04h  7
  11 -5.4418273e+00 6.54e+00 1.02e+04  -6.0 2.87e+02    -  1.28e-02 1.98e-04h  9
  12 -5.4417347e+00 6.54e+00 1.02e+04  -6.0 2.91e+02    -  3.31e-04 6.99e-05h 11
  13 -5.4416874e+00 6.54e+00 1.02e+04  -6.0 2.90e+02    -  1.30e-02 3.54e-05h 12
  14 -5.3079379e+00 5.89e+00 4.48e+04  -6.0 2.90e+02    -  4.30e-04 9.99e-02h  1
  15 -5.2578502e+00 5.64e+00 6.01e+04  -6.0 2.70e+02    -  8.65e-03 4.29e-02h  1
  16 -5.0957004e+00 4.82e+00 1.25e+05  -6.0 2.61e+02    -  6.34e-03 1.47e-01h  1
  17 -5.0907459e+00 4.80e+00 4.33e+04  -6.0 2.30e+02    -  2.69e-01 5.69e-03h  1
  18 -5.0328478e+00 4.52e+00 6.74e+04  -6.0 2.24e+02    -  1.39e-01 5.82e-02h  1
  19 -4.8975523e+00 3.84e+00 1.03e+05  -6.0 2.14e+02    -  3.19e-01 1.50e-01h  1
iter    objective    inf_pr   inf_du lg(mu)  ||d||  lg(rg) alpha_du alpha_pr  ls
  20 -4.6262282e+00 1.85e+00 3.27e+04  -6.0 1.97e+02    -  4.29e-01 5.26e-01h  1
  21 -4.6749571e+00 1.62e+00 4.66e+04  -6.0 9.45e+01    -  2.58e-01 1.21e-01h  1
  22 -4.7046571e+00 1.54e+00 5.96e+04  -6.0 7.82e+01    -  2.51e-01 5.02e-02h  1
  23 -4.7349743e+00 1.51e+00 5.28e+04  -6.0 2.29e+02  -3.6 2.87e-06 2.06e-02h  1
  24 -4.7398495e+00 1.45e+00 5.01e+04  -6.0 4.25e+01  -3.1 3.75e-02 3.94e-02f  1
  25 -4.7227919e+00 5.55e-01 4.69e+05  -6.0 3.60e+01  -2.7 2.81e-03 6.18e-01h  1
  26 -4.7478686e+00 5.44e-01 4.54e+05  -6.0 1.37e+02    -  3.15e-02 1.97e-02h  1
  27 -4.7938636e+00 7.55e-01 4.38e+05  -6.0 5.25e+02    -  3.27e-02 2.11e-02f  1
  28 -4.8793271e+00 1.64e+00 4.06e+05  -6.0 3.97e+02    -  5.87e-02 2.78e-02h  1
  29 -4.8923022e+00 1.56e+00 4.02e+05  -6.0 2.48e+01  -3.2 2.71e-01 4.80e-02h  1
iter    objective    inf_pr   inf_du lg(mu)  ||d||  lg(rg) alpha_du alpha_pr  ls
  30 -5.0064735e+00 1.26e+00 3.23e+05  -6.0 7.17e+01  -3.7 2.42e-01 1.60e-01h  1
  31 -5.0477210e+00 1.20e+00 2.88e+05  -6.0 4.96e+01  -4.2 1.52e-01 5.28e-02h  1
  32 -5.1719799e+00 9.53e-01 1.74e+05  -6.0 2.61e+01  -3.7 1.45e-01 4.02e-01h  1
  33 -5.2571881e+00 7.39e-01 1.55e+05  -6.0 3.76e+01    -  4.39e-02 1.48e-01h  1
  34 -5.4737857e+00 6.61e-01 9.32e+04  -6.0 3.97e+01    -  1.70e-01 4.64e-01h  1
  35 -5.4746462e+00 6.56e-01 1.10e+05  -6.0 5.39e+01    -  3.96e-01 7.67e-03h  1
  36 -5.5282453e+00 4.86e-01 8.31e+04  -6.0 8.21e+01    -  6.78e-01 2.63e-01h  1
  37 -5.6854437e+00 3.85e-01 5.49e+04  -6.0 2.24e+02    -  2.14e-02 2.25e-01h  1
  38 -5.6862577e+00 3.75e-01 5.25e+04  -6.0 7.08e+01    -  1.06e-01 3.79e-02h  1
  39 -5.7029897e+00 3.70e-01 4.53e+04  -6.0 7.93e+01    -  4.58e-02 1.21e-01h  1
iter    objective    inf_pr   inf_du lg(mu)  ||d||  lg(rg) alpha_du alpha_pr  ls
  40 -5.8059174e+00 2.84e+00 5.44e+03  -6.0 6.56e+01    -  1.28e-01 9.11e-01h  1
  41 -5.8125933e+00 2.13e+00 1.88e+03  -6.0 5.95e+01    -  5.73e-01 2.80e-01h  1
  42 -5.8311501e+00 1.86e+00 2.06e+03  -6.0 5.41e+02    -  3.53e-01 1.23e-01h  1
  43 -5.9046629e+00 1.06e+00 3.99e+03  -6.0 1.85e+02    -  8.43e-01 9.98e-01h  1
  44 -5.9068233e+00 2.12e+00 3.93e+03  -6.0 3.21e+03    -  1.60e-02 1.61e-02h  1
  45 -5.9441571e+00 2.23e+00 7.87e+04  -6.0 5.85e+02    -  1.06e-01 5.51e-01h  1
  46 -5.9452135e+00 2.10e+00 1.23e+04  -6.0 2.67e+02    -  1.73e-01 5.86e-02h  1
  47 -5.9515281e+00 1.28e+00 1.79e+05  -6.0 3.46e+02    -  6.20e-02 4.53e-01h  1
  48 -5.9526640e+00 8.26e-01 6.72e+05  -6.0 3.50e+02    -  1.34e-01 6.54e-01h  1
  49r-5.9526640e+00 8.26e-01 1.00e+03  -0.2 0.00e+00    -  0.00e+00 3.46e-07R  2
iter    objective    inf_pr   inf_du lg(mu)  ||d||  lg(rg) alpha_du alpha_pr  ls
  50r-5.9422773e+00 8.24e-01 1.00e+03  -0.2 2.61e+04    -  6.44e-08 2.61e-06f  1
  51 -5.9421066e+00 7.79e-01 3.96e+04  -6.0 7.13e+00    -  1.40e-06 5.55e-02h  1
  52 -5.9408897e+00 4.52e-01 2.30e+04  -6.0 6.73e+00    -  1.36e-01 4.19e-01h  1
  53 -5.9405807e+00 3.38e-01 1.72e+04  -6.0 3.89e+00    -  6.15e-01 2.53e-01h  1
  54 -5.9398292e+00 2.44e-03 2.45e+01  -6.0 2.81e+00    -  7.88e-01 1.00e+00h  1
  55 -5.9403458e+00 2.11e-04 1.08e+01  -6.0 2.20e+00    -  8.17e-01 1.00e+00h  1
  56 -5.9419563e+00 4.55e-03 1.42e+00  -6.0 1.06e+01    -  8.82e-01 1.00e+00h  1
  57 -5.9485452e+00 5.24e-02 2.08e+01  -6.0 3.61e+01    -  3.99e-01 1.00e+00h  1
  58 -5.9497887e+00 1.53e-01 3.50e+00  -6.0 5.89e+01    -  8.41e-01 1.00e+00h  1
  59 -5.9516814e+00 1.85e-04 2.52e-01  -6.0 9.61e-01  -4.2 7.89e-01 1.00e+00h  1
iter    objective    inf_pr   inf_du lg(mu)  ||d||  lg(rg) alpha_du alpha_pr  ls
  60 -5.9519524e+00 2.22e-04 1.56e+00  -6.0 2.30e+00  -4.7 7.21e-01 1.00e+00h  1
  61 -5.9523299e+00 1.83e-03 2.59e+00  -6.0 3.19e+00  -5.2 5.97e-01 1.00e+00h  1
  62 -5.9534937e+00 1.24e-02 9.89e+00  -6.0 1.11e+01  -5.6 5.42e-01 1.00e+00h  1
  63 -5.9548236e+00 1.57e-02 1.15e+01  -6.0 5.23e+01  -6.1 2.52e-01 3.40e-01h  1
  64 -5.9588790e+00 1.75e-01 1.95e+01  -6.0 4.68e+01  -6.6 2.34e-01 1.00e+00f  1
  65 -5.9608853e+00 1.17e-02 3.17e+01  -6.0 4.59e+01  -6.2 2.43e-01 1.00e+00h  1
  66 -5.9611186e+00 1.16e-02 3.16e+01  -6.0 5.78e+02  -4.8 3.37e-02 8.20e-04h  1
  67 -5.9591230e+00 2.20e-02 2.76e+01  -6.0 3.23e+01  -5.3 1.86e-01 3.37e-01h  1
  68 -5.9613233e+00 5.10e-02 4.35e+02  -6.0 2.15e+01  -4.9 1.00e+00 1.88e-01f  1
  69 -5.9616802e+00 5.35e-04 4.67e+00  -6.0 4.33e+00  -5.4 1.00e+00 1.00e+00h  1
iter    objective    inf_pr   inf_du lg(mu)  ||d||  lg(rg) alpha_du alpha_pr  ls
  70 -5.9627745e+00 2.22e-03 9.47e-02  -6.0 1.54e+01  -5.8 1.00e+00 1.00e+00h  1
  71 -5.9658852e+00 1.96e-02 5.11e-01  -6.0 4.53e+01  -6.3 1.00e+00 1.00e+00h  1
  72 -5.9741384e+00 1.49e-01 1.97e+00  -6.0 1.30e+02  -6.8 1.00e+00 1.00e+00h  1
  73 -5.9932912e+00 8.59e-01 5.75e+00  -6.0 3.55e+02  -7.3 1.00e+00 9.60e-01h  1
  74 -6.0020711e+00 1.08e+00 6.55e+00  -6.0 8.91e+02  -7.7 1.90e-01 1.72e-01h  1
  75 -6.0069770e+00 9.85e-01 9.03e+02  -6.0 3.32e+02  -7.3 1.00e+00 2.31e-01h  1
  76 -6.0284771e+00 8.95e-01 2.31e+03  -6.0 8.11e+02  -7.8 3.87e-01 5.58e-01h  1
  77 -6.0428783e+00 8.37e-01 1.65e+03  -6.0 5.67e+03    -  1.75e-01 9.77e-02h  1
  78 -6.0968869e+00 4.71e+00 7.18e+03  -6.0 4.96e+03    -  6.28e-01 4.73e-01h  1
  79 -6.1066879e+00 2.88e+00 6.03e+02  -6.0 1.20e+03    -  4.48e-01 4.89e-01h  1
iter    objective    inf_pr   inf_du lg(mu)  ||d||  lg(rg) alpha_du alpha_pr  ls
  80 -6.1184815e+00 2.75e+00 2.85e+04  -6.0 7.66e+02    -  1.00e+00 7.95e-01h  1
  81 -6.1220788e+00 3.77e+00 5.19e+05  -6.0 1.58e+03    -  6.26e-02 2.08e-01h  1
  82 -6.1221093e+00 3.77e+00 5.22e+05  -6.0 2.03e+03    -  1.02e-01 2.00e-04h  1
  83 -6.1422352e+00 4.45e+00 1.33e+06  -6.0 5.74e+02    -  2.70e-01 7.32e-01f  1
  84 -6.1460659e+00 3.82e+00 8.57e+05  -6.0 1.53e+03    -  2.59e-01 1.42e-01h  1
  85 -6.1505234e+00 3.22e+00 1.17e+08  -6.0 9.97e+02    -  3.36e-04 1.57e-01h  1
  86 -6.1527393e+00 2.99e+00 1.08e+08  -6.0 1.60e+03    -  2.18e-02 7.19e-02h  1
  87 -6.1514773e+00 2.02e+00 1.07e+08  -6.0 7.37e+01  -7.4 4.60e-03 3.26e-01h  1
  88 -6.1502677e+00 1.05e+00 5.59e+07  -6.0 1.40e+02  -7.9 2.51e-01 4.77e-01h  1
  89 -6.1480630e+00 7.26e-01 1.65e+04  -6.0 2.25e+02    -  8.20e-01 1.00e+00h  1
iter    objective    inf_pr   inf_du lg(mu)  ||d||  lg(rg) alpha_du alpha_pr  ls
  90 -6.1551982e+00 4.06e+00 5.03e+01  -6.0 5.33e+02    -  2.94e-01 1.00e+00h  1
  91 -6.1508276e+00 1.75e+00 2.42e-01  -6.0 3.50e+02    -  1.00e+00 1.00e+00h  1
  92 -6.1507328e+00 7.33e-03 3.02e-02  -6.0 2.10e+01    -  1.00e+00 1.00e+00h  1
  93 -6.1507244e+00 2.94e-06 2.03e-04  -6.0 2.68e-01    -  1.00e+00 1.00e+00h  1
  94 -6.1507241e+00 1.97e-08 7.30e-07  -6.0 2.19e-02    -  1.00e+00 1.00e+00h  1
  95 -6.1507996e+00 1.24e-01 5.02e+01  -7.5 1.10e+02    -  9.53e-01 7.79e-01h  1
  96 -6.1508008e+00 2.59e-02 1.08e+01  -7.5 2.51e+01    -  1.00e+00 8.55e-01h  1
  97 -6.1507999e+00 1.98e-04 6.47e-03  -7.5 3.39e+00    -  1.00e+00 1.00e+00h  1
  98 -6.1507999e+00 6.84e-10 9.23e-10  -7.5 6.47e-03    -  1.00e+00 1.00e+00h  1
  99 -6.1508013e+00 1.51e-04 7.05e-01  -9.0 3.52e+00    -  9.24e-01 8.47e-01h  1
iter    objective    inf_pr   inf_du lg(mu)  ||d||  lg(rg) alpha_du alpha_pr  ls
 100 -6.1508015e+00 4.96e-06 1.43e-04  -9.0 5.41e-01    -  1.00e+00 1.00e+00f  1
 101 -6.1508015e+00 2.82e-10 4.24e-09  -9.0 1.24e-04    -  1.00e+00 1.00e+00h  1

Number of Iterations....: 101

                                   (scaled)                 (unscaled)
Objective...............:  -4.8053136949401694e+00   -6.1508015295234166e+00
Dual infeasibility......:   4.2441105842575158e-09    5.4324615478496201e-09
Constraint violation....:   2.8169984964479533e-10    2.8169984964479533e-10
Complementarity.........:   1.1333543183606312e-09    1.4506935275016080e-09
Overall NLP error.......:   4.2441105842575158e-09    5.4324615478496201e-09


Number of objective function evaluations             = 155
Number of objective gradient evaluations             = 102
Number of equality constraint evaluations            = 155
Number of inequality constraint evaluations          = 155
Number of equality constraint Jacobian evaluations   = 104
Number of inequality constraint Jacobian evaluations = 104
Number of Lagrangian Hessian evaluations             = 101
Total CPU secs in IPOPT (w/o function evaluations)   =    241.692
Total CPU secs in NLP function evaluations           =      3.896

EXIT: Optimal Solution Found.
